Problem:    
Rows:       113
Columns:    45 (34 integer, 34 binary)
Non-zeros:  356
Status:     INTEGER OPTIMAL
Objective:  value = 8.998485 (MINimum)

   No.   Row name        Activity     Lower bound   Upper bound
------ ------------    ------------- ------------- -------------
     1 r.5                      1009             0               
     2 r.6                  -991.002       -994.78               
     3 r.7                   8.99849             0               
     4 r.8                   8.99849       -996.07               
     5 r.9                   8.99849             0               
     6 r.10                  8.99849       -998.02               
     7 r.11                     1009             0               
     8 r.12                 -991.002      -998.782               
     9 r.13                  8.99849             0               
    10 r.14                  8.99849      -997.062               
    11 r.15                     1009             0               
    12 r.16                 -994.643      -997.536               
    13 r.17                  8.99849             0               
    14 r.18                  8.99849      -997.221               
    15 r.19                     1009             0               
    16 r.20                  -992.22      -997.576               
    17 r.21                  8.99849             0               
    18 r.22                  4.88022      -999.726               
    19 r.23                     1009             0               
    20 r.24                 -998.766      -998.766               
    21 r.25                        1             1             = 
    22 r.26                        1             1             = 
    23 r.27                        1             1             = 
    24 r.28                        1             1             = 
    25 r.29                        1             1             = 
    26 r.30                     1001             2               
    27 r.31                    -1001         -1001               
    28 r.32                     2000       -998.02               
    29 r.33                     1001             2               
    30 r.34                    -1001         -1001               
    31 r.35                     2000      -998.782               
    32 r.36                     1001             2               
    33 r.37                    -1001         -1001               
    34 r.38                     2000      -997.062               
    35 r.39                     1001             2               
    36 r.40                    -1001         -1001               
    37 r.41                  1996.36      -997.536               
    38 r.42                     1001             2               
    39 r.43                    -1001         -1001               
    40 r.44                     2000      -997.221               
    41 r.45                     1001             2               
    42 r.46                    -1001         -1001               
    43 r.47                  1998.78      -997.576               
    44 r.48                 -993.894       -994.78               
    45 r.49                   6.1056       -996.07               
    46 r.50                 -993.894       -994.78               
    47 r.51                   6.1056       -996.07               
    48 r.52                     1001             2               
    49 r.53                    -1001         -1001               
    50 r.54                     2000        5.2197               
    51 r.55                     1001             2               
    52 r.56                    -1001         -1001               
    53 r.57                     2000        3.9298               
    54 r.58                     1000             2               
    55 r.59                    -1000         -1001               
    56 r.60                     2000      -997.062               
    57 r.61                        2             2               
    58 r.62                       -2         -1001               
    59 r.63                  -3.6418      -997.536               
    60 r.64                     1000             2               
    61 r.65                    -1000         -1001               
    62 r.66                     2000      -997.221               
    63 r.67                        2             2               
    64 r.68                       -2         -1001               
    65 r.69                  -1.2181      -997.576               
    66 r.70                   6.1056       -998.02               
    67 r.71                 -993.894      -998.782               
    68 r.72                   6.1056       -998.02               
    69 r.73                 -993.894      -998.782               
    70 r.74                     1001             2               
    71 r.75                    -1001         -1001               
    72 r.76                     2000        5.2197               
    73 r.77                     1001             2               
    74 r.78                    -1001         -1001               
    75 r.79                  2003.64        3.9298               
    76 r.80                     1000             2               
    77 r.81                    -1000         -1001               
    78 r.82                     2000          1.98               
    79 r.83                        2             2               
    80 r.84                       -2         -1001               
    81 r.85                   3.6418        1.2181               
    82 r.86                     1000             2               
    83 r.87                    -1000         -1001               
    84 r.88                     2000      -997.221               
    85 r.89                        2             2               
    86 r.90                       -2         -1001               
    87 r.91                 -997.576      -997.576               
    88 r.92                   6.1056      -997.062               
    89 r.93                 -997.536      -997.536               
    90 r.94                   6.1056      -997.062               
    91 r.95                 -997.536      -997.536               
    92 r.96                     1001             2               
    93 r.97                    -1001         -1001               
    94 r.98                     2000        5.2197               
    95 r.99                     1001             2               
    96 r.100                   -1001         -1001               
    97 r.101                 2001.22        3.9298               
    98 r.102                    1000             2               
    99 r.103                   -1000         -1001               
   100 r.104                    2000          1.98               
   101 r.105                       2             2               
   102 r.106                      -2         -1001               
   103 r.107                  1.2181        1.2181               
   104 r.108                    1000             2               
   105 r.109                   -1000         -1001               
   106 r.110                    2000        2.9375               
   107 r.111                       2             2               
   108 r.112                      -2         -1001               
   109 r.113                 997.576        2.4638               
   110 r.114                  6.1056      -997.221               
   111 r.115                -995.112      -997.576               
   112 r.116                  6.1056      -997.221               
   113 r.117                -995.112      -997.576               

   No. Column name       Activity     Lower bound   Upper bound
------ ------------    ------------- ------------- -------------
     1 tt                    8.99849             0               
     2 s_1_1        *              1             0             1 
     3 t_1_1                       0             0               
     4 s_2_1        *              0             0             1 
     5 t_2_1                       0             0               
     6 s_1_2        *              0             0             1 
     7 t_1_2                       0             0               
     8 s_2_2        *              1             0             1 
     9 t_2_2                       0             0               
    10 s_1_3        *              0             0             1 
    11 t_1_3                       0             0               
    12 s_2_3        *              1             0             1 
    13 t_2_3                  3.6418             0               
    14 s_1_4        *              0             0             1 
    15 t_1_4                       0             0               
    16 s_2_4        *              1             0             1 
    17 t_2_4                  1.2181             0               
    18 s_1_5        *              0             0             1 
    19 t_1_5                  6.1056             0               
    20 s_2_5        *              1             0             1 
    21 t_2_5                  6.1056             0               
    22 r_1_1_2      *              1             0             1 
    23 u_1_1_2      *              0             0             1 
    24 r_2_1_2      *              1             0             1 
    25 u_2_1_2      *              0             0             1 
    26 r_1_1_3      *              1             0             1 
    27 u_1_1_3      *              0             0             1 
    28 r_2_1_3      *              1             0             1 
    29 u_2_1_3      *              0             0             1 
    30 r_1_1_4      *              1             0             1 
    31 u_1_1_4      *              0             0             1 
    32 r_2_1_4      *              1             0             1 
    33 u_2_1_4      *              0             0             1 
    34 r_1_2_3      *              1             0             1 
    35 u_1_2_3      *              0             0             1 
    36 r_2_2_3      *              0             0             1 
    37 u_2_2_3      *              0             0             1 
    38 r_1_2_4      *              1             0             1 
    39 u_1_2_4      *              0             0             1 
    40 r_2_2_4      *              0             0             1 
    41 u_2_2_4      *              0             0             1 
    42 r_1_3_4      *              1             0             1 
    43 u_1_3_4      *              0             0             1 
    44 r_2_3_4      *              0             0             1 
    45 u_2_3_4      *              1             0             1 

Integer feasibility conditions:

KKT.PE: max.abs.err = 0.00e+00 on row 0
        max.rel.err = 0.00e+00 on row 0
        High quality

KKT.PB: max.abs.err = 0.00e+00 on row 0
        max.rel.err = 0.00e+00 on row 0
        High quality

End of output
